(set-logic QF_NRA)
(set-info :source |Benchmarks generated from hycomp (https://es-static.fbk.eu/tools/hycomp/). BMC instances of non-linear hybrid automata taken from: Alessandro Cimatti, Sergio Mover, Stefano Tonetta, A quantifier-free SMT encoding of non-linear hybrid automata, FMCAD 2012 and Alessandro Cimatti, Sergio Mover, Stefano Tonetta, Quantier-free encoding of invariants for Hybrid Systems, Formal Methods in System Design. This instance solves a BMC problem of depth 1 and uses the quantifier free encoding with equivalences and lemmas encoding. Contacts: Sergio Mover (mover@fbk.eu), Stefano Tonetta (tonettas@fbk.eu), Alessandro Cimatti (cimatti@fbk.eu).|)
(set-info :smt-lib-version 2.0)
(set-info :category "industrial")
(set-info :status unsat)
;; MathSAT API call trace
;; generated on Mon Mar 19 10:37:26 2012
(declare-fun b.EVENT.0__AT1 () Bool)
(declare-fun b.EVENT.1__AT1 () Bool)
(declare-fun b.counter.3__AT0 () Bool)
(declare-fun b.x__AT0 () Real)
(declare-fun b.speed_y__AT0 () Real)
(declare-fun b.speed_x__AT0 () Real)
(declare-fun b.x__AT1 () Real)
(declare-fun b.EVENT.1__AT0 () Bool)
(declare-fun b.event_is_timed__AT1 () Bool)
(declare-fun b.time__AT0 () Real)
(declare-fun b.speed_x__AT1 () Real)
(declare-fun b.speed_y__AT1 () Real)
(declare-fun b.y__AT0 () Real)
(declare-fun b.counter.0__AT0 () Bool)
(declare-fun b.counter.1__AT0 () Bool)
(declare-fun g__AT0 () Real)
(declare-fun b.event_is_timed__AT0 () Bool)
(declare-fun b.counter.2__AT0 () Bool)
(declare-fun b.time__AT1 () Real)
(declare-fun b.delta__AT1 () Real)
(declare-fun b.delta__AT0 () Real)
(declare-fun b.EVENT.0__AT0 () Bool)
(declare-fun b.y__AT1 () Real)
(declare-fun b.counter.0__AT1 () Bool)
(declare-fun b.counter.1__AT1 () Bool)
(declare-fun b.counter.2__AT1 () Bool)
(declare-fun speed_loss__AT0 () Real)
(declare-fun b.counter.3__AT1 () Bool)
(assert (let ((.def_76 (* (- 1.0) g__AT0)))
(let ((.def_77 (* (/ 1 2) .def_76)))
(let ((.def_84 (* 2.0 .def_77)))
(let ((.def_297 (* .def_84 b.delta__AT1)))
(let ((.def_298 (+ b.speed_y__AT1 .def_297)))
(let ((.def_315 (<= .def_298 0.0 )))
(let ((.def_316 (not .def_315)))
(let ((.def_313 (<= b.speed_y__AT1 0.0 )))
(let ((.def_336 (or .def_313 .def_316)))
(let ((.def_301 (<= 0.0 b.speed_y__AT1)))
(let ((.def_302 (not .def_301)))
(let ((.def_299 (<= 0.0 .def_298)))
(let ((.def_335 (or .def_299 .def_302)))
(let ((.def_337 (and .def_335 .def_336)))
(let ((.def_124 (<= 0.0 g__AT0)))
(let ((.def_338 (or .def_124 .def_337)))
(let ((.def_300 (not .def_299)))
(let ((.def_332 (or .def_300 .def_301)))
(let ((.def_314 (not .def_313)))
(let ((.def_331 (or .def_314 .def_315)))
(let ((.def_333 (and .def_331 .def_332)))
(let ((.def_119 (<= g__AT0 0.0 )))
(let ((.def_334 (or .def_119 .def_333)))
(let ((.def_339 (and .def_334 .def_338)))
(let ((.def_328 (and .def_313 .def_315)))
(let ((.def_327 (and .def_299 .def_301)))
(let ((.def_329 (or .def_327 .def_328)))
(let ((.def_292 (* b.speed_y__AT1 b.delta__AT1)))
(let ((.def_290 (* b.delta__AT1 b.delta__AT1)))
(let ((.def_291 (* .def_77 .def_290)))
(let ((.def_293 (+ .def_291 .def_292)))
(let ((.def_294 (+ b.y__AT1 .def_293)))
(let ((.def_307 (<= .def_294 0.0 )))
(let ((.def_321 (not .def_307)))
(let ((.def_305 (<= b.y__AT1 0.0 )))
(let ((.def_322 (or .def_305 .def_321)))
(let ((.def_280 (<= 0.0 b.y__AT1)))
(let ((.def_319 (not .def_280)))
(let ((.def_295 (<= 0.0 .def_294)))
(let ((.def_320 (or .def_295 .def_319)))
(let ((.def_323 (and .def_320 .def_322)))
(let ((.def_317 (or .def_314 .def_316)))
(let ((.def_318 (not .def_317)))
(let ((.def_324 (or .def_318 .def_323)))
(let ((.def_309 (not .def_295)))
(let ((.def_310 (or .def_280 .def_309)))
(let ((.def_306 (not .def_305)))
(let ((.def_308 (or .def_306 .def_307)))
(let ((.def_311 (and .def_308 .def_310)))
(let ((.def_303 (or .def_300 .def_302)))
(let ((.def_304 (not .def_303)))
(let ((.def_312 (or .def_304 .def_311)))
(let ((.def_325 (and .def_312 .def_324)))
(let ((.def_296 (and .def_280 .def_295)))
(let ((.def_326 (and .def_296 .def_325)))
(let ((.def_330 (and .def_326 .def_329)))
(let ((.def_340 (and .def_330 .def_339)))
(let ((.def_57 (<= g__AT0 10.0 )))
(let ((.def_56 (<= 8.0 g__AT0)))
(let ((.def_58 (and .def_56 .def_57)))
(let ((.def_341 (and .def_58 .def_340)))
(let ((.def_65 (<= speed_loss__AT0 (/ 1 2))))
(let ((.def_62 (<= (/ 1 10) speed_loss__AT0)))
(let ((.def_66 (and .def_62 .def_65)))
(let ((.def_342 (and .def_66 .def_341)))
(let ((.def_32 (not b.counter.0__AT0)))
(let ((.def_30 (not b.counter.1__AT0)))
(let ((.def_33 (and .def_30 .def_32)))
(let ((.def_285 (or .def_33 b.counter.3__AT0)))
(let ((.def_38 (not b.counter.3__AT0)))
(let ((.def_35 (not b.counter.2__AT0)))
(let ((.def_36 (and .def_33 .def_35)))
(let ((.def_284 (or .def_36 .def_38)))
(let ((.def_286 (and .def_284 .def_285)))
(let ((.def_67 (and .def_58 .def_66)))
(let ((.def_281 (and .def_67 .def_280)))
(let ((.def_277 (not b.EVENT.0__AT1)))
(let ((.def_275 (not b.EVENT.1__AT1)))
(let ((.def_278 (or .def_275 .def_277)))
(let ((.def_6 (not b.counter.0__AT1)))
(let ((.def_4 (not b.counter.1__AT1)))
(let ((.def_268 (or .def_4 .def_6)))
(let ((.def_272 (or b.counter.3__AT1 .def_268)))
(let ((.def_269 (or b.counter.2__AT1 .def_268)))
(let ((.def_9 (not b.counter.2__AT1)))
(let ((.def_267 (or .def_6 .def_9)))
(let ((.def_270 (and .def_267 .def_269)))
(let ((.def_12 (not b.counter.3__AT1)))
(let ((.def_271 (or .def_12 .def_270)))
(let ((.def_273 (and .def_271 .def_272)))
(let ((.def_279 (and .def_273 .def_278)))
(let ((.def_282 (and .def_279 .def_281)))
(let ((.def_262 (<= 0.0 b.delta__AT0)))
(let ((.def_51 (not b.EVENT.0__AT0)))
(let ((.def_49 (not b.EVENT.1__AT0)))
(let ((.def_163 (and .def_49 .def_51)))
(let ((.def_164 (not .def_163)))
(let ((.def_263 (or .def_164 .def_262)))
(let ((.def_264 (or b.EVENT.1__AT0 .def_263)))
(let ((.def_211 (= b.counter.0__AT1 b.counter.0__AT0)))
(let ((.def_209 (= b.counter.1__AT1 b.counter.1__AT0)))
(let ((.def_207 (= b.counter.2__AT1 b.counter.2__AT0)))
(let ((.def_206 (= b.counter.3__AT1 b.counter.3__AT0)))
(let ((.def_208 (and .def_206 .def_207)))
(let ((.def_210 (and .def_208 .def_209)))
(let ((.def_212 (and .def_210 .def_211)))
(let ((.def_259 (or .def_164 .def_212)))
(let ((.def_260 (or b.EVENT.1__AT0 .def_259)))
(let ((.def_219 (= b.x__AT1 b.x__AT0)))
(let ((.def_216 (= b.y__AT0 b.y__AT1)))
(let ((.def_253 (and .def_216 .def_219)))
(let ((.def_145 (= b.speed_x__AT0 b.speed_x__AT1)))
(let ((.def_254 (and .def_145 .def_253)))
(let ((.def_205 (= b.speed_y__AT0 b.speed_y__AT1)))
(let ((.def_255 (and .def_205 .def_254)))
(let ((.def_250 (= b.delta__AT0 0.0 )))
(let ((.def_251 (and .def_163 .def_250)))
(let ((.def_252 (not .def_251)))
(let ((.def_256 (or .def_252 .def_255)))
(let ((.def_257 (or b.EVENT.1__AT0 .def_256)))
(let ((.def_230 (= b.time__AT0 b.time__AT1)))
(let ((.def_242 (and .def_219 .def_230)))
(let ((.def_243 (and .def_216 .def_242)))
(let ((.def_244 (and .def_145 .def_243)))
(let ((.def_245 (and .def_205 .def_244)))
(let ((.def_246 (and .def_212 .def_245)))
(let ((.def_247 (or .def_49 .def_246)))
(let ((.def_233 (* (- 1.0) b.time__AT1)))
(let ((.def_236 (+ b.delta__AT0 .def_233)))
(let ((.def_237 (+ b.time__AT0 .def_236)))
(let ((.def_238 (= .def_237 0.0 )))
(let ((.def_239 (or .def_164 .def_238)))
(let ((.def_240 (or b.EVENT.1__AT0 .def_239)))
(let ((.def_231 (or .def_163 .def_230)))
(let ((.def_232 (or b.EVENT.1__AT0 .def_231)))
(let ((.def_241 (and .def_232 .def_240)))
(let ((.def_248 (and .def_241 .def_247)))
(let ((.def_226 (= .def_164 b.event_is_timed__AT1)))
(let ((.def_224 (= b.event_is_timed__AT0 .def_163)))
(let ((.def_227 (and .def_224 .def_226)))
(let ((.def_213 (and .def_205 .def_212)))
(let ((.def_166 (= b.y__AT0 0.0 )))
(let ((.def_89 (<= 0.0 b.speed_y__AT0)))
(let ((.def_90 (not .def_89)))
(let ((.def_167 (and .def_90 .def_166)))
(let ((.def_214 (or .def_167 .def_213)))
(let ((.def_182 (or .def_6 b.counter.0__AT0)))
(let ((.def_181 (or b.counter.0__AT1 .def_32)))
(let ((.def_183 (and .def_181 .def_182)))
(let ((.def_184 (and .def_4 .def_183)))
(let ((.def_185 (or b.counter.1__AT0 .def_184)))
(let ((.def_180 (or b.counter.1__AT1 .def_30)))
(let ((.def_186 (and .def_180 .def_185)))
(let ((.def_197 (and .def_9 .def_186)))
(let ((.def_198 (or b.counter.2__AT0 .def_197)))
(let ((.def_192 (and .def_4 .def_32)))
(let ((.def_193 (or b.counter.1__AT0 .def_192)))
(let ((.def_194 (and .def_180 .def_193)))
(let ((.def_195 (and b.counter.2__AT1 .def_194)))
(let ((.def_196 (or .def_35 .def_195)))
(let ((.def_199 (and .def_196 .def_198)))
(let ((.def_200 (and b.counter.3__AT1 .def_199)))
(let ((.def_201 (or b.counter.3__AT0 .def_200)))
(let ((.def_187 (and b.counter.2__AT1 .def_186)))
(let ((.def_188 (or b.counter.2__AT0 .def_187)))
(let ((.def_176 (or b.counter.1__AT1 b.counter.1__AT0)))
(let ((.def_174 (and .def_4 b.counter.0__AT1)))
(let ((.def_175 (or .def_30 .def_174)))
(let ((.def_177 (and .def_175 .def_176)))
(let ((.def_178 (and .def_9 .def_177)))
(let ((.def_179 (or .def_35 .def_178)))
(let ((.def_189 (and .def_179 .def_188)))
(let ((.def_190 (and .def_12 .def_189)))
(let ((.def_191 (or .def_38 .def_190)))
(let ((.def_202 (and .def_191 .def_201)))
(let ((.def_170 (* (- 1.0) speed_loss__AT0)))
(let ((.def_171 (+ 1.0 .def_170)))
(let ((.def_169 (* (- 1.0) b.speed_y__AT0)))
(let ((.def_172 (* .def_169 .def_171)))
(let ((.def_173 (= b.speed_y__AT1 .def_172)))
(let ((.def_203 (and .def_173 .def_202)))
(let ((.def_168 (not .def_167)))
(let ((.def_204 (or .def_168 .def_203)))
(let ((.def_215 (and .def_204 .def_214)))
(let ((.def_217 (and .def_215 .def_216)))
(let ((.def_218 (and .def_145 .def_217)))
(let ((.def_220 (and .def_218 .def_219)))
(let ((.def_221 (or .def_163 .def_220)))
(let ((.def_222 (or b.EVENT.1__AT0 .def_221)))
(let ((.def_155 (* (- 1.0) b.y__AT1)))
(let ((.def_79 (* b.speed_y__AT0 b.delta__AT0)))
(let ((.def_158 (+ .def_79 .def_155)))
(let ((.def_74 (* b.delta__AT0 b.delta__AT0)))
(let ((.def_78 (* .def_74 .def_77)))
(let ((.def_159 (+ .def_78 .def_158)))
(let ((.def_160 (+ b.y__AT0 .def_159)))
(let ((.def_161 (= .def_160 0.0 )))
(let ((.def_149 (* (- 1.0) b.speed_y__AT1)))
(let ((.def_147 (* b.delta__AT0 .def_76)))
(let ((.def_150 (+ .def_147 .def_149)))
(let ((.def_151 (+ b.speed_y__AT0 .def_150)))
(let ((.def_152 (= .def_151 0.0 )))
(let ((.def_137 (* (- 1.0) b.x__AT1)))
(let ((.def_141 (+ .def_137 b.x__AT0)))
(let ((.def_135 (* b.delta__AT0 b.speed_x__AT0)))
(let ((.def_142 (+ .def_135 .def_141)))
(let ((.def_143 (= .def_142 0.0 )))
(let ((.def_146 (and .def_143 .def_145)))
(let ((.def_153 (and .def_146 .def_152)))
(let ((.def_162 (and .def_153 .def_161)))
(let ((.def_165 (or .def_162 .def_164)))
(let ((.def_223 (and .def_165 .def_222)))
(let ((.def_228 (and .def_223 .def_227)))
(let ((.def_249 (and .def_228 .def_248)))
(let ((.def_258 (and .def_249 .def_257)))
(let ((.def_261 (and .def_258 .def_260)))
(let ((.def_265 (and .def_261 .def_264)))
(let ((.def_266 (and .def_49 .def_265)))
(let ((.def_283 (and .def_266 .def_282)))
(let ((.def_287 (and .def_283 .def_286)))
(let ((.def_85 (* b.delta__AT0 .def_84)))
(let ((.def_86 (+ b.speed_y__AT0 .def_85)))
(let ((.def_103 (<= .def_86 0.0 )))
(let ((.def_104 (not .def_103)))
(let ((.def_101 (<= b.speed_y__AT0 0.0 )))
(let ((.def_126 (or .def_101 .def_104)))
(let ((.def_87 (<= 0.0 .def_86)))
(let ((.def_125 (or .def_87 .def_90)))
(let ((.def_127 (and .def_125 .def_126)))
(let ((.def_128 (or .def_124 .def_127)))
(let ((.def_88 (not .def_87)))
(let ((.def_121 (or .def_88 .def_89)))
(let ((.def_102 (not .def_101)))
(let ((.def_120 (or .def_102 .def_103)))
(let ((.def_122 (and .def_120 .def_121)))
(let ((.def_123 (or .def_119 .def_122)))
(let ((.def_129 (and .def_123 .def_128)))
(let ((.def_116 (and .def_101 .def_103)))
(let ((.def_115 (and .def_87 .def_89)))
(let ((.def_117 (or .def_115 .def_116)))
(let ((.def_80 (+ .def_78 .def_79)))
(let ((.def_81 (+ b.y__AT0 .def_80)))
(let ((.def_95 (<= .def_81 0.0 )))
(let ((.def_109 (not .def_95)))
(let ((.def_93 (<= b.y__AT0 0.0 )))
(let ((.def_110 (or .def_93 .def_109)))
(let ((.def_68 (<= 0.0 b.y__AT0)))
(let ((.def_107 (not .def_68)))
(let ((.def_82 (<= 0.0 .def_81)))
(let ((.def_108 (or .def_82 .def_107)))
(let ((.def_111 (and .def_108 .def_110)))
(let ((.def_105 (or .def_102 .def_104)))
(let ((.def_106 (not .def_105)))
(let ((.def_112 (or .def_106 .def_111)))
(let ((.def_97 (not .def_82)))
(let ((.def_98 (or .def_68 .def_97)))
(let ((.def_94 (not .def_93)))
(let ((.def_96 (or .def_94 .def_95)))
(let ((.def_99 (and .def_96 .def_98)))
(let ((.def_91 (or .def_88 .def_90)))
(let ((.def_92 (not .def_91)))
(let ((.def_100 (or .def_92 .def_99)))
(let ((.def_113 (and .def_100 .def_112)))
(let ((.def_83 (and .def_68 .def_82)))
(let ((.def_114 (and .def_83 .def_113)))
(let ((.def_118 (and .def_114 .def_117)))
(let ((.def_130 (and .def_118 .def_129)))
(let ((.def_131 (and .def_58 .def_130)))
(let ((.def_132 (and .def_66 .def_131)))
(let ((.def_69 (and .def_67 .def_68)))
(let ((.def_52 (or .def_49 .def_51)))
(let ((.def_42 (or .def_30 .def_32)))
(let ((.def_46 (or b.counter.3__AT0 .def_42)))
(let ((.def_43 (or b.counter.2__AT0 .def_42)))
(let ((.def_41 (or .def_32 .def_35)))
(let ((.def_44 (and .def_41 .def_43)))
(let ((.def_45 (or .def_38 .def_44)))
(let ((.def_47 (and .def_45 .def_46)))
(let ((.def_53 (and .def_47 .def_52)))
(let ((.def_70 (and .def_53 .def_69)))
(let ((.def_39 (and .def_36 .def_38)))
(let ((.def_27 (= b.speed_y__AT0 0.0 )))
(let ((.def_24 (= b.y__AT0 10.0 )))
(let ((.def_19 (= b.time__AT0 0.0 )))
(let ((.def_21 (and .def_19 b.event_is_timed__AT0)))
(let ((.def_25 (and .def_21 .def_24)))
(let ((.def_28 (and .def_25 .def_27)))
(let ((.def_40 (and .def_28 .def_39)))
(let ((.def_71 (and .def_40 .def_70)))
(let ((.def_7 (and .def_4 .def_6)))
(let ((.def_14 (or .def_7 b.counter.3__AT1)))
(let ((.def_10 (and .def_7 .def_9)))
(let ((.def_13 (or .def_10 .def_12)))
(let ((.def_15 (and .def_13 .def_14)))
(let ((.def_16 (not .def_15)))
(let ((.def_72 (and .def_16 .def_71)))
(let ((.def_133 (and .def_72 .def_132)))
(let ((.def_288 (and .def_133 .def_287)))
(let ((.def_343 (and .def_288 .def_342)))
.def_343))))))))))))))))))))))))))))))))))))))))))))))))))))))))))))))))))))))))))))))))))))))))))))))))))))))))))))))))))))))))))))))))))))))))))))))))))))))))))))))))))))))))))))))))))))))))))))))))))))))))))))))))))))))))))))))))))))))))))))))))))))))))))))))))))))))))))))))))))))))))))))))))))))))))))))
(check-sat)
(exit)
